\ENCODING=ISO-8859-1
\Problem name: MTZ

Minimize
 obj: x_0_0 + 509 x_0_1 + 501 x_0_2 + 312 x_0_3 + 1019 x_0_4 + 736 x_0_5
      + 656 x_0_6 + 60 x_0_7 + 1039 x_0_8 + 726 x_0_9 + 2314 x_0_10
      + 479 x_0_11 + 448 x_0_12 + 479 x_0_13 + 619 x_0_14 + 150 x_0_15
      + 509 x_1_0 + x_1_1 + 126 x_1_2 + 474 x_1_3 + 1526 x_1_4 + 1226 x_1_5
      + 1133 x_1_6 + 532 x_1_7 + 1449 x_1_8 + 1122 x_1_9 + 2789 x_1_10
      + 958 x_1_11 + 941 x_1_12 + 978 x_1_13 + 1127 x_1_14 + 542 x_1_15
      + 501 x_2_0 + 126 x_2_1 + x_2_2 + 541 x_2_3 + 1516 x_2_4 + 1184 x_2_5
      + 1084 x_2_6 + 536 x_2_7 + 1371 x_2_8 + 1045 x_2_9 + 2728 x_2_10
      + 913 x_2_11 + 904 x_2_12 + 946 x_2_13 + 1115 x_2_14 + 499 x_2_15
      + 312 x_3_0 + 474 x_3_1 + 541 x_3_2 + x_3_3 + 1157 x_3_4 + 980 x_3_5
      + 919 x_3_6 + 271 x_3_7 + 1333 x_3_8 + 1029 x_3_9 + 2553 x_3_10
      + 751 x_3_11 + 704 x_3_12 + 720 x_3_13 + 783 x_3_14 + 455 x_3_15
      + 1019 x_4_0 + 1526 x_4_1 + 1516 x_4_2 + 1157 x_4_3 + x_4_4 + 478 x_4_5
      + 583 x_4_6 + 996 x_4_7 + 858 x_4_8 + 855 x_4_9 + 1504 x_4_10
      + 677 x_4_11 + 651 x_4_12 + 600 x_4_13 + 401 x_4_14 + 1033 x_4_15
      + 736 x_5_0 + 1226 x_5_1 + 1184 x_5_2 + 980 x_5_3 + 478 x_5_4 + x_5_5
      + 115 x_5_6 + 740 x_5_7 + 470 x_5_8 + 379 x_5_9 + 1581 x_5_10
      + 271 x_5_11 + 289 x_5_12 + 261 x_5_13 + 308 x_5_14 + 687 x_5_15
      + 656 x_6_0 + 1133 x_6_1 + 1084 x_6_2 + 919 x_6_3 + 583 x_6_4 + 115 x_6_5
      + x_6_6 + 667 x_6_7 + 455 x_6_8 + 288 x_6_9 + 1661 x_6_10 + 177 x_6_11
      + 216 x_6_12 + 207 x_6_13 + 343 x_6_14 + 592 x_6_15 + 60 x_7_0
      + 532 x_7_1 + 536 x_7_2 + 271 x_7_3 + 996 x_7_4 + 740 x_7_5 + 667 x_7_6
      + x_7_7 + 1066 x_7_8 + 759 x_7_9 + 2320 x_7_10 + 493 x_7_11 + 454 x_7_12
      + 479 x_7_13 + 598 x_7_14 + 206 x_7_15 + 1039 x_8_0 + 1449 x_8_1
      + 1371 x_8_2 + 1333 x_8_3 + 858 x_8_4 + 470 x_8_5 + 455 x_8_6
      + 1066 x_8_7 + x_8_8 + 328 x_8_9 + 1387 x_8_10 + 591 x_8_11 + 650 x_8_12
      + 656 x_8_13 + 776 x_8_14 + 933 x_8_15 + 726 x_9_0 + 1122 x_9_1
      + 1045 x_9_2 + 1029 x_9_3 + 855 x_9_4 + 379 x_9_5 + 288 x_9_6 + 759 x_9_7
      + 328 x_9_8 + x_9_9 + 1697 x_9_10 + 333 x_9_11 + 400 x_9_12 + 427 x_9_13
      + 622 x_9_14 + 610 x_9_15 + 2314 x_10_0 + 2789 x_10_1 + 2728 x_10_2
      + 2553 x_10_3 + 1504 x_10_4 + 1581 x_10_5 + 1661 x_10_6 + 2320 x_10_7
      + 1387 x_10_8 + 1697 x_10_9 + x_10_10 + 1838 x_10_11 + 1868 x_10_12
      + 1841 x_10_13 + 1789 x_10_14 + 2248 x_10_15 + 479 x_11_0 + 958 x_11_1
      + 913 x_11_2 + 751 x_11_3 + 677 x_11_4 + 271 x_11_5 + 177 x_11_6
      + 493 x_11_7 + 591 x_11_8 + 333 x_11_9 + 1838 x_11_10 + x_11_11
      + 68 x_11_12 + 105 x_11_13 + 336 x_11_14 + 417 x_11_15 + 448 x_12_0
      + 941 x_12_1 + 904 x_12_2 + 704 x_12_3 + 651 x_12_4 + 289 x_12_5
      + 216 x_12_6 + 454 x_12_7 + 650 x_12_8 + 400 x_12_9 + 1868 x_12_10
      + 68 x_12_11 + x_12_12 + 52 x_12_13 + 287 x_12_14 + 406 x_12_15
      + 479 x_13_0 + 978 x_13_1 + 946 x_13_2 + 720 x_13_3 + 600 x_13_4
      + 261 x_13_5 + 207 x_13_6 + 479 x_13_7 + 656 x_13_8 + 427 x_13_9
      + 1841 x_13_10 + 105 x_13_11 + 52 x_13_12 + x_13_13 + 237 x_13_14
      + 449 x_13_15 + 619 x_14_0 + 1127 x_14_1 + 1115 x_14_2 + 783 x_14_3
      + 401 x_14_4 + 308 x_14_5 + 343 x_14_6 + 598 x_14_7 + 776 x_14_8
      + 622 x_14_9 + 1789 x_14_10 + 336 x_14_11 + 287 x_14_12 + 237 x_14_13
      + x_14_14 + 636 x_14_15 + 150 x_15_0 + 542 x_15_1 + 499 x_15_2
      + 455 x_15_3 + 1033 x_15_4 + 687 x_15_5 + 592 x_15_6 + 206 x_15_7
      + 933 x_15_8 + 610 x_15_9 + 2248 x_15_10 + 417 x_15_11 + 406 x_15_12
      + 449 x_15_13 + 636 x_15_14 + x_15_15
Subject To
 c1:   x_0_0 + x_0_1 + x_0_2 + x_0_3 + x_0_4 + x_0_5 + x_0_6 + x_0_7 + x_0_8
       + x_0_9 + x_0_10 + x_0_11 + x_0_12 + x_0_13 + x_0_14 + x_0_15  = 1
 c2:   x_0_0 + x_1_0 + x_2_0 + x_3_0 + x_4_0 + x_5_0 + x_6_0 + x_7_0 + x_8_0
       + x_9_0 + x_10_0 + x_11_0 + x_12_0 + x_13_0 + x_14_0 + x_15_0  = 1
 c3:   x_1_0 + x_1_1 + x_1_2 + x_1_3 + x_1_4 + x_1_5 + x_1_6 + x_1_7 + x_1_8
       + x_1_9 + x_1_10 + x_1_11 + x_1_12 + x_1_13 + x_1_14 + x_1_15  = 1
 c4:   x_0_1 + x_1_1 + x_2_1 + x_3_1 + x_4_1 + x_5_1 + x_6_1 + x_7_1 + x_8_1
       + x_9_1 + x_10_1 + x_11_1 + x_12_1 + x_13_1 + x_14_1 + x_15_1  = 1
 c5:   x_2_0 + x_2_1 + x_2_2 + x_2_3 + x_2_4 + x_2_5 + x_2_6 + x_2_7 + x_2_8
       + x_2_9 + x_2_10 + x_2_11 + x_2_12 + x_2_13 + x_2_14 + x_2_15  = 1
 c6:   x_0_2 + x_1_2 + x_2_2 + x_3_2 + x_4_2 + x_5_2 + x_6_2 + x_7_2 + x_8_2
       + x_9_2 + x_10_2 + x_11_2 + x_12_2 + x_13_2 + x_14_2 + x_15_2  = 1
 c7:   x_3_0 + x_3_1 + x_3_2 + x_3_3 + x_3_4 + x_3_5 + x_3_6 + x_3_7 + x_3_8
       + x_3_9 + x_3_10 + x_3_11 + x_3_12 + x_3_13 + x_3_14 + x_3_15  = 1
 c8:   x_0_3 + x_1_3 + x_2_3 + x_3_3 + x_4_3 + x_5_3 + x_6_3 + x_7_3 + x_8_3
       + x_9_3 + x_10_3 + x_11_3 + x_12_3 + x_13_3 + x_14_3 + x_15_3  = 1
 c9:   x_4_0 + x_4_1 + x_4_2 + x_4_3 + x_4_4 + x_4_5 + x_4_6 + x_4_7 + x_4_8
       + x_4_9 + x_4_10 + x_4_11 + x_4_12 + x_4_13 + x_4_14 + x_4_15  = 1
 c10:  x_0_4 + x_1_4 + x_2_4 + x_3_4 + x_4_4 + x_5_4 + x_6_4 + x_7_4 + x_8_4
       + x_9_4 + x_10_4 + x_11_4 + x_12_4 + x_13_4 + x_14_4 + x_15_4  = 1
 c11:  x_5_0 + x_5_1 + x_5_2 + x_5_3 + x_5_4 + x_5_5 + x_5_6 + x_5_7 + x_5_8
       + x_5_9 + x_5_10 + x_5_11 + x_5_12 + x_5_13 + x_5_14 + x_5_15  = 1
 c12:  x_0_5 + x_1_5 + x_2_5 + x_3_5 + x_4_5 + x_5_5 + x_6_5 + x_7_5 + x_8_5
       + x_9_5 + x_10_5 + x_11_5 + x_12_5 + x_13_5 + x_14_5 + x_15_5  = 1
 c13:  x_6_0 + x_6_1 + x_6_2 + x_6_3 + x_6_4 + x_6_5 + x_6_6 + x_6_7 + x_6_8
       + x_6_9 + x_6_10 + x_6_11 + x_6_12 + x_6_13 + x_6_14 + x_6_15  = 1
 c14:  x_0_6 + x_1_6 + x_2_6 + x_3_6 + x_4_6 + x_5_6 + x_6_6 + x_7_6 + x_8_6
       + x_9_6 + x_10_6 + x_11_6 + x_12_6 + x_13_6 + x_14_6 + x_15_6  = 1
 c15:  x_7_0 + x_7_1 + x_7_2 + x_7_3 + x_7_4 + x_7_5 + x_7_6 + x_7_7 + x_7_8
       + x_7_9 + x_7_10 + x_7_11 + x_7_12 + x_7_13 + x_7_14 + x_7_15  = 1
 c16:  x_0_7 + x_1_7 + x_2_7 + x_3_7 + x_4_7 + x_5_7 + x_6_7 + x_7_7 + x_8_7
       + x_9_7 + x_10_7 + x_11_7 + x_12_7 + x_13_7 + x_14_7 + x_15_7  = 1
 c17:  x_8_0 + x_8_1 + x_8_2 + x_8_3 + x_8_4 + x_8_5 + x_8_6 + x_8_7 + x_8_8
       + x_8_9 + x_8_10 + x_8_11 + x_8_12 + x_8_13 + x_8_14 + x_8_15  = 1
 c18:  x_0_8 + x_1_8 + x_2_8 + x_3_8 + x_4_8 + x_5_8 + x_6_8 + x_7_8 + x_8_8
       + x_9_8 + x_10_8 + x_11_8 + x_12_8 + x_13_8 + x_14_8 + x_15_8  = 1
 c19:  x_9_0 + x_9_1 + x_9_2 + x_9_3 + x_9_4 + x_9_5 + x_9_6 + x_9_7 + x_9_8
       + x_9_9 + x_9_10 + x_9_11 + x_9_12 + x_9_13 + x_9_14 + x_9_15  = 1
 c20:  x_0_9 + x_1_9 + x_2_9 + x_3_9 + x_4_9 + x_5_9 + x_6_9 + x_7_9 + x_8_9
       + x_9_9 + x_10_9 + x_11_9 + x_12_9 + x_13_9 + x_14_9 + x_15_9  = 1
 c21:  x_10_0 + x_10_1 + x_10_2 + x_10_3 + x_10_4 + x_10_5 + x_10_6 + x_10_7
       + x_10_8 + x_10_9 + x_10_10 + x_10_11 + x_10_12 + x_10_13 + x_10_14
       + x_10_15  = 1
 c22:  x_0_10 + x_1_10 + x_2_10 + x_3_10 + x_4_10 + x_5_10 + x_6_10 + x_7_10
       + x_8_10 + x_9_10 + x_10_10 + x_11_10 + x_12_10 + x_13_10 + x_14_10
       + x_15_10  = 1
 c23:  x_11_0 + x_11_1 + x_11_2 + x_11_3 + x_11_4 + x_11_5 + x_11_6 + x_11_7
       + x_11_8 + x_11_9 + x_11_10 + x_11_11 + x_11_12 + x_11_13 + x_11_14
       + x_11_15  = 1
 c24:  x_0_11 + x_1_11 + x_2_11 + x_3_11 + x_4_11 + x_5_11 + x_6_11 + x_7_11
       + x_8_11 + x_9_11 + x_10_11 + x_11_11 + x_12_11 + x_13_11 + x_14_11
       + x_15_11  = 1
 c25:  x_12_0 + x_12_1 + x_12_2 + x_12_3 + x_12_4 + x_12_5 + x_12_6 + x_12_7
       + x_12_8 + x_12_9 + x_12_10 + x_12_11 + x_12_12 + x_12_13 + x_12_14
       + x_12_15  = 1
 c26:  x_0_12 + x_1_12 + x_2_12 + x_3_12 + x_4_12 + x_5_12 + x_6_12 + x_7_12
       + x_8_12 + x_9_12 + x_10_12 + x_11_12 + x_12_12 + x_13_12 + x_14_12
       + x_15_12  = 1
 c27:  x_13_0 + x_13_1 + x_13_2 + x_13_3 + x_13_4 + x_13_5 + x_13_6 + x_13_7
       + x_13_8 + x_13_9 + x_13_10 + x_13_11 + x_13_12 + x_13_13 + x_13_14
       + x_13_15  = 1
 c28:  x_0_13 + x_1_13 + x_2_13 + x_3_13 + x_4_13 + x_5_13 + x_6_13 + x_7_13
       + x_8_13 + x_9_13 + x_10_13 + x_11_13 + x_12_13 + x_13_13 + x_14_13
       + x_15_13  = 1
 c29:  x_14_0 + x_14_1 + x_14_2 + x_14_3 + x_14_4 + x_14_5 + x_14_6 + x_14_7
       + x_14_8 + x_14_9 + x_14_10 + x_14_11 + x_14_12 + x_14_13 + x_14_14
       + x_14_15  = 1
 c30:  x_0_14 + x_1_14 + x_2_14 + x_3_14 + x_4_14 + x_5_14 + x_6_14 + x_7_14
       + x_8_14 + x_9_14 + x_10_14 + x_11_14 + x_12_14 + x_13_14 + x_14_14
       + x_15_14  = 1
 c31:  x_15_0 + x_15_1 + x_15_2 + x_15_3 + x_15_4 + x_15_5 + x_15_6 + x_15_7
       + x_15_8 + x_15_9 + x_15_10 + x_15_11 + x_15_12 + x_15_13 + x_15_14
       + x_15_15  = 1
 c32:  x_0_15 + x_1_15 + x_2_15 + x_3_15 + x_4_15 + x_5_15 + x_6_15 + x_7_15
       + x_8_15 + x_9_15 + x_10_15 + x_11_15 + x_12_15 + x_13_15 + x_14_15
       + x_15_15  = 1
 c33:  15 x_1_1 <= 14
 c34:  15 x_1_2 + u_1 - u_2 <= 14
 c35:  15 x_1_3 + u_1 - u_3 <= 14
 c36:  15 x_1_4 + u_1 - u_4 <= 14
 c37:  15 x_1_5 + u_1 - u_5 <= 14
 c38:  15 x_1_6 + u_1 - u_6 <= 14
 c39:  15 x_1_7 + u_1 - u_7 <= 14
 c40:  15 x_1_8 + u_1 - u_8 <= 14
 c41:  15 x_1_9 + u_1 - u_9 <= 14
 c42:  15 x_1_10 + u_1 - u_10 <= 14
 c43:  15 x_1_11 + u_1 - u_11 <= 14
 c44:  15 x_1_12 + u_1 - u_12 <= 14
 c45:  15 x_1_13 + u_1 - u_13 <= 14
 c46:  15 x_1_14 + u_1 - u_14 <= 14
 c47:  15 x_1_15 + u_1 - u_15 <= 14
 c48:  15 x_2_1 - u_1 + u_2 <= 14
 c49:  15 x_2_2 <= 14
 c50:  15 x_2_3 + u_2 - u_3 <= 14
 c51:  15 x_2_4 + u_2 - u_4 <= 14
 c52:  15 x_2_5 + u_2 - u_5 <= 14
 c53:  15 x_2_6 + u_2 - u_6 <= 14
 c54:  15 x_2_7 + u_2 - u_7 <= 14
 c55:  15 x_2_8 + u_2 - u_8 <= 14
 c56:  15 x_2_9 + u_2 - u_9 <= 14
 c57:  15 x_2_10 + u_2 - u_10 <= 14
 c58:  15 x_2_11 + u_2 - u_11 <= 14
 c59:  15 x_2_12 + u_2 - u_12 <= 14
 c60:  15 x_2_13 + u_2 - u_13 <= 14
 c61:  15 x_2_14 + u_2 - u_14 <= 14
 c62:  15 x_2_15 + u_2 - u_15 <= 14
 c63:  15 x_3_1 - u_1 + u_3 <= 14
 c64:  15 x_3_2 - u_2 + u_3 <= 14
 c65:  15 x_3_3 <= 14
 c66:  15 x_3_4 + u_3 - u_4 <= 14
 c67:  15 x_3_5 + u_3 - u_5 <= 14
 c68:  15 x_3_6 + u_3 - u_6 <= 14
 c69:  15 x_3_7 + u_3 - u_7 <= 14
 c70:  15 x_3_8 + u_3 - u_8 <= 14
 c71:  15 x_3_9 + u_3 - u_9 <= 14
 c72:  15 x_3_10 + u_3 - u_10 <= 14
 c73:  15 x_3_11 + u_3 - u_11 <= 14
 c74:  15 x_3_12 + u_3 - u_12 <= 14
 c75:  15 x_3_13 + u_3 - u_13 <= 14
 c76:  15 x_3_14 + u_3 - u_14 <= 14
 c77:  15 x_3_15 + u_3 - u_15 <= 14
 c78:  15 x_4_1 - u_1 + u_4 <= 14
 c79:  15 x_4_2 - u_2 + u_4 <= 14
 c80:  15 x_4_3 - u_3 + u_4 <= 14
 c81:  15 x_4_4 <= 14
 c82:  15 x_4_5 + u_4 - u_5 <= 14
 c83:  15 x_4_6 + u_4 - u_6 <= 14
 c84:  15 x_4_7 + u_4 - u_7 <= 14
 c85:  15 x_4_8 + u_4 - u_8 <= 14
 c86:  15 x_4_9 + u_4 - u_9 <= 14
 c87:  15 x_4_10 + u_4 - u_10 <= 14
 c88:  15 x_4_11 + u_4 - u_11 <= 14
 c89:  15 x_4_12 + u_4 - u_12 <= 14
 c90:  15 x_4_13 + u_4 - u_13 <= 14
 c91:  15 x_4_14 + u_4 - u_14 <= 14
 c92:  15 x_4_15 + u_4 - u_15 <= 14
 c93:  15 x_5_1 - u_1 + u_5 <= 14
 c94:  15 x_5_2 - u_2 + u_5 <= 14
 c95:  15 x_5_3 - u_3 + u_5 <= 14
 c96:  15 x_5_4 - u_4 + u_5 <= 14
 c97:  15 x_5_5 <= 14
 c98:  15 x_5_6 + u_5 - u_6 <= 14
 c99:  15 x_5_7 + u_5 - u_7 <= 14
 c100: 15 x_5_8 + u_5 - u_8 <= 14
 c101: 15 x_5_9 + u_5 - u_9 <= 14
 c102: 15 x_5_10 + u_5 - u_10 <= 14
 c103: 15 x_5_11 + u_5 - u_11 <= 14
 c104: 15 x_5_12 + u_5 - u_12 <= 14
 c105: 15 x_5_13 + u_5 - u_13 <= 14
 c106: 15 x_5_14 + u_5 - u_14 <= 14
 c107: 15 x_5_15 + u_5 - u_15 <= 14
 c108: 15 x_6_1 - u_1 + u_6 <= 14
 c109: 15 x_6_2 - u_2 + u_6 <= 14
 c110: 15 x_6_3 - u_3 + u_6 <= 14
 c111: 15 x_6_4 - u_4 + u_6 <= 14
 c112: 15 x_6_5 - u_5 + u_6 <= 14
 c113: 15 x_6_6 <= 14
 c114: 15 x_6_7 + u_6 - u_7 <= 14
 c115: 15 x_6_8 + u_6 - u_8 <= 14
 c116: 15 x_6_9 + u_6 - u_9 <= 14
 c117: 15 x_6_10 + u_6 - u_10 <= 14
 c118: 15 x_6_11 + u_6 - u_11 <= 14
 c119: 15 x_6_12 + u_6 - u_12 <= 14
 c120: 15 x_6_13 + u_6 - u_13 <= 14
 c121: 15 x_6_14 + u_6 - u_14 <= 14
 c122: 15 x_6_15 + u_6 - u_15 <= 14
 c123: 15 x_7_1 - u_1 + u_7 <= 14
 c124: 15 x_7_2 - u_2 + u_7 <= 14
 c125: 15 x_7_3 - u_3 + u_7 <= 14
 c126: 15 x_7_4 - u_4 + u_7 <= 14
 c127: 15 x_7_5 - u_5 + u_7 <= 14
 c128: 15 x_7_6 - u_6 + u_7 <= 14
 c129: 15 x_7_7 <= 14
 c130: 15 x_7_8 + u_7 - u_8 <= 14
 c131: 15 x_7_9 + u_7 - u_9 <= 14
 c132: 15 x_7_10 + u_7 - u_10 <= 14
 c133: 15 x_7_11 + u_7 - u_11 <= 14
 c134: 15 x_7_12 + u_7 - u_12 <= 14
 c135: 15 x_7_13 + u_7 - u_13 <= 14
 c136: 15 x_7_14 + u_7 - u_14 <= 14
 c137: 15 x_7_15 + u_7 - u_15 <= 14
 c138: 15 x_8_1 - u_1 + u_8 <= 14
 c139: 15 x_8_2 - u_2 + u_8 <= 14
 c140: 15 x_8_3 - u_3 + u_8 <= 14
 c141: 15 x_8_4 - u_4 + u_8 <= 14
 c142: 15 x_8_5 - u_5 + u_8 <= 14
 c143: 15 x_8_6 - u_6 + u_8 <= 14
 c144: 15 x_8_7 - u_7 + u_8 <= 14
 c145: 15 x_8_8 <= 14
 c146: 15 x_8_9 + u_8 - u_9 <= 14
 c147: 15 x_8_10 + u_8 - u_10 <= 14
 c148: 15 x_8_11 + u_8 - u_11 <= 14
 c149: 15 x_8_12 + u_8 - u_12 <= 14
 c150: 15 x_8_13 + u_8 - u_13 <= 14
 c151: 15 x_8_14 + u_8 - u_14 <= 14
 c152: 15 x_8_15 + u_8 - u_15 <= 14
 c153: 15 x_9_1 - u_1 + u_9 <= 14
 c154: 15 x_9_2 - u_2 + u_9 <= 14
 c155: 15 x_9_3 - u_3 + u_9 <= 14
 c156: 15 x_9_4 - u_4 + u_9 <= 14
 c157: 15 x_9_5 - u_5 + u_9 <= 14
 c158: 15 x_9_6 - u_6 + u_9 <= 14
 c159: 15 x_9_7 - u_7 + u_9 <= 14
 c160: 15 x_9_8 - u_8 + u_9 <= 14
 c161: 15 x_9_9 <= 14
 c162: 15 x_9_10 + u_9 - u_10 <= 14
 c163: 15 x_9_11 + u_9 - u_11 <= 14
 c164: 15 x_9_12 + u_9 - u_12 <= 14
 c165: 15 x_9_13 + u_9 - u_13 <= 14
 c166: 15 x_9_14 + u_9 - u_14 <= 14
 c167: 15 x_9_15 + u_9 - u_15 <= 14
 c168: 15 x_10_1 - u_1 + u_10 <= 14
 c169: 15 x_10_2 - u_2 + u_10 <= 14
 c170: 15 x_10_3 - u_3 + u_10 <= 14
 c171: 15 x_10_4 - u_4 + u_10 <= 14
 c172: 15 x_10_5 - u_5 + u_10 <= 14
 c173: 15 x_10_6 - u_6 + u_10 <= 14
 c174: 15 x_10_7 - u_7 + u_10 <= 14
 c175: 15 x_10_8 - u_8 + u_10 <= 14
 c176: 15 x_10_9 - u_9 + u_10 <= 14
 c177: 15 x_10_10 <= 14
 c178: 15 x_10_11 + u_10 - u_11 <= 14
 c179: 15 x_10_12 + u_10 - u_12 <= 14
 c180: 15 x_10_13 + u_10 - u_13 <= 14
 c181: 15 x_10_14 + u_10 - u_14 <= 14
 c182: 15 x_10_15 + u_10 - u_15 <= 14
 c183: 15 x_11_1 - u_1 + u_11 <= 14
 c184: 15 x_11_2 - u_2 + u_11 <= 14
 c185: 15 x_11_3 - u_3 + u_11 <= 14
 c186: 15 x_11_4 - u_4 + u_11 <= 14
 c187: 15 x_11_5 - u_5 + u_11 <= 14
 c188: 15 x_11_6 - u_6 + u_11 <= 14
 c189: 15 x_11_7 - u_7 + u_11 <= 14
 c190: 15 x_11_8 - u_8 + u_11 <= 14
 c191: 15 x_11_9 - u_9 + u_11 <= 14
 c192: 15 x_11_10 - u_10 + u_11 <= 14
 c193: 15 x_11_11 <= 14
 c194: 15 x_11_12 + u_11 - u_12 <= 14
 c195: 15 x_11_13 + u_11 - u_13 <= 14
 c196: 15 x_11_14 + u_11 - u_14 <= 14
 c197: 15 x_11_15 + u_11 - u_15 <= 14
 c198: 15 x_12_1 - u_1 + u_12 <= 14
 c199: 15 x_12_2 - u_2 + u_12 <= 14
 c200: 15 x_12_3 - u_3 + u_12 <= 14
 c201: 15 x_12_4 - u_4 + u_12 <= 14
 c202: 15 x_12_5 - u_5 + u_12 <= 14
 c203: 15 x_12_6 - u_6 + u_12 <= 14
 c204: 15 x_12_7 - u_7 + u_12 <= 14
 c205: 15 x_12_8 - u_8 + u_12 <= 14
 c206: 15 x_12_9 - u_9 + u_12 <= 14
 c207: 15 x_12_10 - u_10 + u_12 <= 14
 c208: 15 x_12_11 - u_11 + u_12 <= 14
 c209: 15 x_12_12 <= 14
 c210: 15 x_12_13 + u_12 - u_13 <= 14
 c211: 15 x_12_14 + u_12 - u_14 <= 14
 c212: 15 x_12_15 + u_12 - u_15 <= 14
 c213: 15 x_13_1 - u_1 + u_13 <= 14
 c214: 15 x_13_2 - u_2 + u_13 <= 14
 c215: 15 x_13_3 - u_3 + u_13 <= 14
 c216: 15 x_13_4 - u_4 + u_13 <= 14
 c217: 15 x_13_5 - u_5 + u_13 <= 14
 c218: 15 x_13_6 - u_6 + u_13 <= 14
 c219: 15 x_13_7 - u_7 + u_13 <= 14
 c220: 15 x_13_8 - u_8 + u_13 <= 14
 c221: 15 x_13_9 - u_9 + u_13 <= 14
 c222: 15 x_13_10 - u_10 + u_13 <= 14
 c223: 15 x_13_11 - u_11 + u_13 <= 14
 c224: 15 x_13_12 - u_12 + u_13 <= 14
 c225: 15 x_13_13 <= 14
 c226: 15 x_13_14 + u_13 - u_14 <= 14
 c227: 15 x_13_15 + u_13 - u_15 <= 14
 c228: 15 x_14_1 - u_1 + u_14 <= 14
 c229: 15 x_14_2 - u_2 + u_14 <= 14
 c230: 15 x_14_3 - u_3 + u_14 <= 14
 c231: 15 x_14_4 - u_4 + u_14 <= 14
 c232: 15 x_14_5 - u_5 + u_14 <= 14
 c233: 15 x_14_6 - u_6 + u_14 <= 14
 c234: 15 x_14_7 - u_7 + u_14 <= 14
 c235: 15 x_14_8 - u_8 + u_14 <= 14
 c236: 15 x_14_9 - u_9 + u_14 <= 14
 c237: 15 x_14_10 - u_10 + u_14 <= 14
 c238: 15 x_14_11 - u_11 + u_14 <= 14
 c239: 15 x_14_12 - u_12 + u_14 <= 14
 c240: 15 x_14_13 - u_13 + u_14 <= 14
 c241: 15 x_14_14 <= 14
 c242: 15 x_14_15 + u_14 - u_15 <= 14
 c243: 15 x_15_1 - u_1 + u_15 <= 14
 c244: 15 x_15_2 - u_2 + u_15 <= 14
 c245: 15 x_15_3 - u_3 + u_15 <= 14
 c246: 15 x_15_4 - u_4 + u_15 <= 14
 c247: 15 x_15_5 - u_5 + u_15 <= 14
 c248: 15 x_15_6 - u_6 + u_15 <= 14
 c249: 15 x_15_7 - u_7 + u_15 <= 14
 c250: 15 x_15_8 - u_8 + u_15 <= 14
 c251: 15 x_15_9 - u_9 + u_15 <= 14
 c252: 15 x_15_10 - u_10 + u_15 <= 14
 c253: 15 x_15_11 - u_11 + u_15 <= 14
 c254: 15 x_15_12 - u_12 + u_15 <= 14
 c255: 15 x_15_13 - u_13 + u_15 <= 14
 c256: 15 x_15_14 - u_14 + u_15 <= 14
 c257: 15 x_15_15 <= 14
Bounds
 0 <= x_0_0 <= 1
 0 <= x_0_1 <= 1
 0 <= x_0_2 <= 1
 0 <= x_0_3 <= 1
 0 <= x_0_4 <= 1
 0 <= x_0_5 <= 1
 0 <= x_0_6 <= 1
 0 <= x_0_7 <= 1
 0 <= x_0_8 <= 1
 0 <= x_0_9 <= 1
 0 <= x_0_10 <= 1
 0 <= x_0_11 <= 1
 0 <= x_0_12 <= 1
 0 <= x_0_13 <= 1
 0 <= x_0_14 <= 1
 0 <= x_0_15 <= 1
 0 <= x_1_0 <= 1
 0 <= x_1_1 <= 1
 0 <= x_1_2 <= 1
 0 <= x_1_3 <= 1
 0 <= x_1_4 <= 1
 0 <= x_1_5 <= 1
 0 <= x_1_6 <= 1
 0 <= x_1_7 <= 1
 0 <= x_1_8 <= 1
 0 <= x_1_9 <= 1
 0 <= x_1_10 <= 1
 0 <= x_1_11 <= 1
 0 <= x_1_12 <= 1
 0 <= x_1_13 <= 1
 0 <= x_1_14 <= 1
 0 <= x_1_15 <= 1
 0 <= x_2_0 <= 1
 0 <= x_2_1 <= 1
 0 <= x_2_2 <= 1
 0 <= x_2_3 <= 1
 0 <= x_2_4 <= 1
 0 <= x_2_5 <= 1
 0 <= x_2_6 <= 1
 0 <= x_2_7 <= 1
 0 <= x_2_8 <= 1
 0 <= x_2_9 <= 1
 0 <= x_2_10 <= 1
 0 <= x_2_11 <= 1
 0 <= x_2_12 <= 1
 0 <= x_2_13 <= 1
 0 <= x_2_14 <= 1
 0 <= x_2_15 <= 1
 0 <= x_3_0 <= 1
 0 <= x_3_1 <= 1
 0 <= x_3_2 <= 1
 0 <= x_3_3 <= 1
 0 <= x_3_4 <= 1
 0 <= x_3_5 <= 1
 0 <= x_3_6 <= 1
 0 <= x_3_7 <= 1
 0 <= x_3_8 <= 1
 0 <= x_3_9 <= 1
 0 <= x_3_10 <= 1
 0 <= x_3_11 <= 1
 0 <= x_3_12 <= 1
 0 <= x_3_13 <= 1
 0 <= x_3_14 <= 1
 0 <= x_3_15 <= 1
 0 <= x_4_0 <= 1
 0 <= x_4_1 <= 1
 0 <= x_4_2 <= 1
 0 <= x_4_3 <= 1
 0 <= x_4_4 <= 1
 0 <= x_4_5 <= 1
 0 <= x_4_6 <= 1
 0 <= x_4_7 <= 1
 0 <= x_4_8 <= 1
 0 <= x_4_9 <= 1
 0 <= x_4_10 <= 1
 0 <= x_4_11 <= 1
 0 <= x_4_12 <= 1
 0 <= x_4_13 <= 1
 0 <= x_4_14 <= 1
 0 <= x_4_15 <= 1
 0 <= x_5_0 <= 1
 0 <= x_5_1 <= 1
 0 <= x_5_2 <= 1
 0 <= x_5_3 <= 1
 0 <= x_5_4 <= 1
 0 <= x_5_5 <= 1
 0 <= x_5_6 <= 1
 0 <= x_5_7 <= 1
 0 <= x_5_8 <= 1
 0 <= x_5_9 <= 1
 0 <= x_5_10 <= 1
 0 <= x_5_11 <= 1
 0 <= x_5_12 <= 1
 0 <= x_5_13 <= 1
 0 <= x_5_14 <= 1
 0 <= x_5_15 <= 1
 0 <= x_6_0 <= 1
 0 <= x_6_1 <= 1
 0 <= x_6_2 <= 1
 0 <= x_6_3 <= 1
 0 <= x_6_4 <= 1
 0 <= x_6_5 <= 1
 0 <= x_6_6 <= 1
 0 <= x_6_7 <= 1
 0 <= x_6_8 <= 1
 0 <= x_6_9 <= 1
 0 <= x_6_10 <= 1
 0 <= x_6_11 <= 1
 0 <= x_6_12 <= 1
 0 <= x_6_13 <= 1
 0 <= x_6_14 <= 1
 0 <= x_6_15 <= 1
 0 <= x_7_0 <= 1
 0 <= x_7_1 <= 1
 0 <= x_7_2 <= 1
 0 <= x_7_3 <= 1
 0 <= x_7_4 <= 1
 0 <= x_7_5 <= 1
 0 <= x_7_6 <= 1
 0 <= x_7_7 <= 1
 0 <= x_7_8 <= 1
 0 <= x_7_9 <= 1
 0 <= x_7_10 <= 1
 0 <= x_7_11 <= 1
 0 <= x_7_12 <= 1
 0 <= x_7_13 <= 1
 0 <= x_7_14 <= 1
 0 <= x_7_15 <= 1
 0 <= x_8_0 <= 1
 0 <= x_8_1 <= 1
 0 <= x_8_2 <= 1
 0 <= x_8_3 <= 1
 0 <= x_8_4 <= 1
 0 <= x_8_5 <= 1
 0 <= x_8_6 <= 1
 0 <= x_8_7 <= 1
 0 <= x_8_8 <= 1
 0 <= x_8_9 <= 1
 0 <= x_8_10 <= 1
 0 <= x_8_11 <= 1
 0 <= x_8_12 <= 1
 0 <= x_8_13 <= 1
 0 <= x_8_14 <= 1
 0 <= x_8_15 <= 1
 0 <= x_9_0 <= 1
 0 <= x_9_1 <= 1
 0 <= x_9_2 <= 1
 0 <= x_9_3 <= 1
 0 <= x_9_4 <= 1
 0 <= x_9_5 <= 1
 0 <= x_9_6 <= 1
 0 <= x_9_7 <= 1
 0 <= x_9_8 <= 1
 0 <= x_9_9 <= 1
 0 <= x_9_10 <= 1
 0 <= x_9_11 <= 1
 0 <= x_9_12 <= 1
 0 <= x_9_13 <= 1
 0 <= x_9_14 <= 1
 0 <= x_9_15 <= 1
 0 <= x_10_0 <= 1
 0 <= x_10_1 <= 1
 0 <= x_10_2 <= 1
 0 <= x_10_3 <= 1
 0 <= x_10_4 <= 1
 0 <= x_10_5 <= 1
 0 <= x_10_6 <= 1
 0 <= x_10_7 <= 1
 0 <= x_10_8 <= 1
 0 <= x_10_9 <= 1
 0 <= x_10_10 <= 1
 0 <= x_10_11 <= 1
 0 <= x_10_12 <= 1
 0 <= x_10_13 <= 1
 0 <= x_10_14 <= 1
 0 <= x_10_15 <= 1
 0 <= x_11_0 <= 1
 0 <= x_11_1 <= 1
 0 <= x_11_2 <= 1
 0 <= x_11_3 <= 1
 0 <= x_11_4 <= 1
 0 <= x_11_5 <= 1
 0 <= x_11_6 <= 1
 0 <= x_11_7 <= 1
 0 <= x_11_8 <= 1
 0 <= x_11_9 <= 1
 0 <= x_11_10 <= 1
 0 <= x_11_11 <= 1
 0 <= x_11_12 <= 1
 0 <= x_11_13 <= 1
 0 <= x_11_14 <= 1
 0 <= x_11_15 <= 1
 0 <= x_12_0 <= 1
 0 <= x_12_1 <= 1
 0 <= x_12_2 <= 1
 0 <= x_12_3 <= 1
 0 <= x_12_4 <= 1
 0 <= x_12_5 <= 1
 0 <= x_12_6 <= 1
 0 <= x_12_7 <= 1
 0 <= x_12_8 <= 1
 0 <= x_12_9 <= 1
 0 <= x_12_10 <= 1
 0 <= x_12_11 <= 1
 0 <= x_12_12 <= 1
 0 <= x_12_13 <= 1
 0 <= x_12_14 <= 1
 0 <= x_12_15 <= 1
 0 <= x_13_0 <= 1
 0 <= x_13_1 <= 1
 0 <= x_13_2 <= 1
 0 <= x_13_3 <= 1
 0 <= x_13_4 <= 1
 0 <= x_13_5 <= 1
 0 <= x_13_6 <= 1
 0 <= x_13_7 <= 1
 0 <= x_13_8 <= 1
 0 <= x_13_9 <= 1
 0 <= x_13_10 <= 1
 0 <= x_13_11 <= 1
 0 <= x_13_12 <= 1
 0 <= x_13_13 <= 1
 0 <= x_13_14 <= 1
 0 <= x_13_15 <= 1
 0 <= x_14_0 <= 1
 0 <= x_14_1 <= 1
 0 <= x_14_2 <= 1
 0 <= x_14_3 <= 1
 0 <= x_14_4 <= 1
 0 <= x_14_5 <= 1
 0 <= x_14_6 <= 1
 0 <= x_14_7 <= 1
 0 <= x_14_8 <= 1
 0 <= x_14_9 <= 1
 0 <= x_14_10 <= 1
 0 <= x_14_11 <= 1
 0 <= x_14_12 <= 1
 0 <= x_14_13 <= 1
 0 <= x_14_14 <= 1
 0 <= x_14_15 <= 1
 0 <= x_15_0 <= 1
 0 <= x_15_1 <= 1
 0 <= x_15_2 <= 1
 0 <= x_15_3 <= 1
 0 <= x_15_4 <= 1
 0 <= x_15_5 <= 1
 0 <= x_15_6 <= 1
 0 <= x_15_7 <= 1
 0 <= x_15_8 <= 1
 0 <= x_15_9 <= 1
 0 <= x_15_10 <= 1
 0 <= x_15_11 <= 1
 0 <= x_15_12 <= 1
 0 <= x_15_13 <= 1
 0 <= x_15_14 <= 1
 0 <= x_15_15 <= 1
 2 <= u_1 <= 16
 2 <= u_2 <= 16
 2 <= u_3 <= 16
 2 <= u_4 <= 16
 2 <= u_5 <= 16
 2 <= u_6 <= 16
 2 <= u_7 <= 16
 2 <= u_8 <= 16
 2 <= u_9 <= 16
 2 <= u_10 <= 16
 2 <= u_11 <= 16
 2 <= u_12 <= 16
 2 <= u_13 <= 16
 2 <= u_14 <= 16
 2 <= u_15 <= 16
Binaries
 x_0_0  x_0_1  x_0_2  x_0_3  x_0_4  x_0_5  x_0_6  x_0_7  x_0_8  x_0_9  x_0_10 
 x_0_11  x_0_12  x_0_13  x_0_14  x_0_15  x_1_0  x_1_1  x_1_2  x_1_3  x_1_4 
 x_1_5  x_1_6  x_1_7  x_1_8  x_1_9  x_1_10  x_1_11  x_1_12  x_1_13  x_1_14 
 x_1_15  x_2_0  x_2_1  x_2_2  x_2_3  x_2_4  x_2_5  x_2_6  x_2_7  x_2_8  x_2_9 
 x_2_10  x_2_11  x_2_12  x_2_13  x_2_14  x_2_15  x_3_0  x_3_1  x_3_2  x_3_3 
 x_3_4  x_3_5  x_3_6  x_3_7  x_3_8  x_3_9  x_3_10  x_3_11  x_3_12  x_3_13 
 x_3_14  x_3_15  x_4_0  x_4_1  x_4_2  x_4_3  x_4_4  x_4_5  x_4_6  x_4_7  x_4_8 
 x_4_9  x_4_10  x_4_11  x_4_12  x_4_13  x_4_14  x_4_15  x_5_0  x_5_1  x_5_2 
 x_5_3  x_5_4  x_5_5  x_5_6  x_5_7  x_5_8  x_5_9  x_5_10  x_5_11  x_5_12 
 x_5_13  x_5_14  x_5_15  x_6_0  x_6_1  x_6_2  x_6_3  x_6_4  x_6_5  x_6_6 
 x_6_7  x_6_8  x_6_9  x_6_10  x_6_11  x_6_12  x_6_13  x_6_14  x_6_15  x_7_0 
 x_7_1  x_7_2  x_7_3  x_7_4  x_7_5  x_7_6  x_7_7  x_7_8  x_7_9  x_7_10  x_7_11 
 x_7_12  x_7_13  x_7_14  x_7_15  x_8_0  x_8_1  x_8_2  x_8_3  x_8_4  x_8_5 
 x_8_6  x_8_7  x_8_8  x_8_9  x_8_10  x_8_11  x_8_12  x_8_13  x_8_14  x_8_15 
 x_9_0  x_9_1  x_9_2  x_9_3  x_9_4  x_9_5  x_9_6  x_9_7  x_9_8  x_9_9  x_9_10 
 x_9_11  x_9_12  x_9_13  x_9_14  x_9_15  x_10_0  x_10_1  x_10_2  x_10_3 
 x_10_4  x_10_5  x_10_6  x_10_7  x_10_8  x_10_9  x_10_10  x_10_11  x_10_12 
 x_10_13  x_10_14  x_10_15  x_11_0  x_11_1  x_11_2  x_11_3  x_11_4  x_11_5 
 x_11_6  x_11_7  x_11_8  x_11_9  x_11_10  x_11_11  x_11_12  x_11_13  x_11_14 
 x_11_15  x_12_0  x_12_1  x_12_2  x_12_3  x_12_4  x_12_5  x_12_6  x_12_7 
 x_12_8  x_12_9  x_12_10  x_12_11  x_12_12  x_12_13  x_12_14  x_12_15  x_13_0 
 x_13_1  x_13_2  x_13_3  x_13_4  x_13_5  x_13_6  x_13_7  x_13_8  x_13_9 
 x_13_10  x_13_11  x_13_12  x_13_13  x_13_14  x_13_15  x_14_0  x_14_1  x_14_2 
 x_14_3  x_14_4  x_14_5  x_14_6  x_14_7  x_14_8  x_14_9  x_14_10  x_14_11 
 x_14_12  x_14_13  x_14_14  x_14_15  x_15_0  x_15_1  x_15_2  x_15_3  x_15_4 
 x_15_5  x_15_6  x_15_7  x_15_8  x_15_9  x_15_10  x_15_11  x_15_12  x_15_13 
 x_15_14  x_15_15 
Generals
 u_1  u_2  u_3  u_4  u_5  u_6  u_7  u_8  u_9  u_10  u_11  u_12  u_13  u_14 
 u_15 
End
